Minimize
  obj: x0 + x1 + x2 + x3 + x4 + x5 + x6 + x7 + x8 + x9

Subject To
  c0: x0 + x3 + x4 + x5 + x7 = 35
  c1: x2 + x3 + x4 + x6 = 44
  c2: x0 + x1 + x2 + x4 + x5 + x6 + x7 + x9 = 107
  c3: x1 + x2 + x3 + x4 + x7 + x8 + x9 = 74
  c4: x3 + x5 + x9 = 41
  c5: x2 + x3 + x4 + x5 + x7 = 44
  c6: x0 + x3 + x6 = 31
  c7: x0 + x2 + x3 + x4 + x5 + x6 + x8 = 81

Bounds
  x0 >= 0
  x1 >= 0
  x2 >= 0
  x3 >= 0
  x4 >= 0
  x5 >= 0
  x6 >= 0
  x7 >= 0
  x8 >= 0
  x9 >= 0

Generals
  x0 x1 x2 x3 x4 x5 x6 x7 x8 x9

End
